p cnf 37 48                 
1 17 0
-4 17 0
2 18 0
-5 18 0
3 19 0
-6 19 0
-17 -18 -19 20 0
-20 -21 0
-2 -1 -7 0
7 -11 0
-1 8 0
-2 8 0
1 2 -8 0
-8 -3 -9 0
9 -11 0
3 8 -10 0
10 -11 0
11 -21 0
-5 -4 -12 0
12 -16 0
-4 13 0
-5 13 0
4 5 -13 0
-13 -6 -14 0
14 -16 0
6 13 -15 0
15 -16 0
16 -21 0
-1 2 -22 0
22 -28 0
-1 -2 23 0
1 2 23 0
-2 2 23 0
-4 5 -24 0
-23 24 -25 0
25 -28 0
28 -36 0
-2 3 -29 0
29 -35 0
-2 -3 30 0
2 3 30 0
-3 3 30 0
-5 6 -31 0
-30 31 -32 0
32 -35 0
35 -36 0
21 0
36 0
